



10 10
8 8 9 3 3 13 0 7 5 17 7 2 6 1 4 5 1 15 2 6
2 7 1 11 3 5 5 14 8 1 7 19 0 11 4 13 6 13 9 9
2 12 4 19 5 16 8 5 7 1 1 11 3 10 0 6 6 15 9 10
1 7 7 13 8 1 4 2 0 5 3 12 2 15 6 15 9 18 5 18
8 9 4 4 3 1 9 13 2 2 5 9 7 12 1 13 0 4 6 1
7 11 0 8 8 4 1 4 5 18 3 10 6 2 9 16 4 14 2 15
9 19 8 14 4 13 5 17 0 8 7 18 1 6 2 3 6 3 3 2
8 12 5 9 6 15 3 17 4 4 2 2 7 19 0 13 9 11 1 13
7 1 9 5 6 9 0 9 1 15 3 12 5 1 8 13 2 13 4 5
7 17 9 19 3 3 1 7 2 19 5 1 4 2 8 6 6 6 0 14
